param n := 249;
param c := 10000
param : V : p w :=
   0	 494	 484
   1	 267	 257
   2	 269	 259
   3	 466	 456
   4	 269	 259
   5	 295	 285
   6	 363	 353
   7	 260	 250
   8	 407	 397
   9	 377	 367
  10	 270	 260
  11	 383	 373
  12	 415	 405
  13	 266	 256
  14	 349	 339
  15	 441	 431
  16	 279	 269
  17	 310	 300
  18	 504	 494
  19	 260	 250
  20	 266	 256
  21	 453	 443
  22	 280	 270
  23	 297	 287
  24	 383	 373
  25	 298	 288
  26	 349	 339
  27	 411	 401
  28	 276	 266
  29	 343	 333
  30	 384	 374
  31	 291	 281
  32	 355	 345
  33	 451	 441
  34	 268	 258
  35	 311	 301
  36	 384	 374
  37	 280	 270
  38	 366	 356
  39	 375	 365
  40	 300	 290
  41	 355	 345
  42	 453	 443
  43	 273	 263
  44	 304	 294
  45	 494	 484
  46	 263	 253
  47	 273	 263
  48	 429	 419
  49	 265	 255
  50	 336	 326
  51	 469	 459
  52	 271	 261
  53	 290	 280
  54	 370	 360
  55	 273	 263
  56	 387	 377
  57	 417	 407
  58	 292	 282
  59	 321	 311
  60	 382	 372
  61	 270	 260
  62	 378	 368
  63	 455	 445
  64	 282	 272
  65	 293	 283
  66	 367	 357
  67	 321	 311
  68	 342	 332
  69	 504	 494
  70	 261	 251
  71	 265	 255
  72	 401	 391
  73	 296	 286
  74	 333	 323
  75	 400	 390
  76	 291	 281
  77	 339	 329
  78	 486	 476
  79	 260	 250
  80	 284	 274
  81	 468	 458
  82	 262	 252
  83	 300	 290
  84	 458	 448
  85	 281	 271
  86	 291	 281
  87	 404	 394
  88	 297	 287
  89	 329	 319
  90	 367	 357
  91	 266	 256
  92	 397	 387
  93	 459	 449
  94	 274	 264
  95	 297	 287
  96	 394	 384
  97	 291	 281
  98	 345	 335
  99	 443	 433
 100	 281	 271
 101	 306	 296
 102	 434	 424
 103	 275	 265
 104	 321	 311
 105	 401	 391
 106	 269	 259
 107	 360	 350
 108	 477	 467
 109	 264	 254
 110	 289	 279
 111	 397	 387
 112	 274	 264
 113	 359	 349
 114	 473	 463
 115	 267	 257
 116	 290	 280
 117	 431	 421
 118	 265	 255
 119	 334	 324
 120	 452	 442
 121	 280	 270
 122	 298	 288
 123	 431	 421
 124	 265	 255
 125	 334	 324
 126	 420	 410
 127	 296	 286
 128	 314	 304
 129	 402	 392
 130	 283	 273
 131	 345	 335
 132	 407	 397
 133	 262	 252
 134	 361	 351
 135	 424	 414
 136	 288	 278
 137	 318	 308
 138	 400	 390
 139	 291	 281
 140	 339	 329
 141	 460	 450
 142	 262	 252
 143	 308	 298
 144	 387	 377
 145	 309	 299
 146	 334	 324
 147	 444	 434
 148	 274	 264
 149	 312	 302
 150	 463	 453
 151	 281	 271
 152	 286	 276
 153	 479	 469
 154	 267	 257
 155	 284	 274
 156	 411	 401
 157	 266	 256
 158	 353	 343
 159	 406	 396
 160	 295	 285
 161	 329	 319
 162	 423	 413
 163	 300	 290
 164	 307	 297
 165	 376	 366
 166	 269	 259
 167	 385	 375
 168	 471	 461
 169	 263	 253
 170	 296	 286
 171	 384	 374
 172	 273	 263
 173	 373	 363
 174	 400	 390
 175	 302	 292
 176	 328	 318
 177	 424	 414
 178	 267	 257
 179	 339	 329
 180	 500	 490
 181	 264	 254
 182	 266	 256
 183	 360	 350
 184	 268	 258
 185	 402	 392
 186	 498	 488
 187	 260	 250
 188	 272	 262
 189	 469	 459
 190	 279	 269
 191	 282	 272
 192	 393	 383
 193	 313	 303
 194	 324	 314
 195	 487	 477
 196	 262	 252
 197	 281	 271
 198	 467	 457
 199	 275	 265
 200	 288	 278
 201	 506	 496
 202	 260	 250
 203	 264	 254
 204	 366	 356
 205	 281	 271
 206	 383	 373
 207	 383	 373
 208	 291	 281
 209	 356	 346
 210	 378	 368
 211	 325	 315
 212	 327	 317
 213	 413	 403
 214	 300	 290
 215	 317	 307
 216	 384	 374
 217	 274	 264
 218	 372	 362
 219	 497	 487
 220	 263	 253
 221	 270	 260
 222	 417	 407
 223	 263	 253
 224	 350	 340
 225	 476	 466
 226	 264	 254
 227	 290	 280
 228	 392	 382
 229	 295	 285
 230	 343	 333
 231	 379	 369
 232	 279	 269
 233	 372	 362
 234	 443	 433
 235	 277	 267
 236	 310	 300
 237	 377	 367
 238	 321	 311
 239	 332	 322
 240	 391	 381
 241	 283	 273
 242	 356	 346
 243	 491	 481
 244	 260	 250
 245	 279	 269
 246	 440	 430
 247	 270	 260
 248	 320	 310
;

set E :=
   0	   1
   0	   2
   0	   3
   0	  22
   0	  23
   0	  24
   0	  62
   0	  68
   0	  75
   0	  79
   0	  85
   0	  87
   0	 107
   0	 109
   0	 119
   0	 123
   0	 127
   0	 145
   0	 153
   0	 173
   0	 175
   0	 181
   0	 189
   0	 193
   0	 202
   0	 216
   0	 220
   0	 231
   0	 235
   1	   3
   1	  10
   1	  17
   1	  25
   1	  40
   1	  49
   1	  56
   1	  57
   1	  67
   1	  79
   1	  92
   1	  96
   1	  99
   1	 107
   1	 130
   1	 155
   1	 185
   1	 195
   1	 214
   1	 216
   1	 243
   1	 246
   2	  22
   2	  30
   2	  34
   2	  40
   2	  42
   2	  44
   2	  52
   2	  55
   2	  61
   2	  73
   2	  81
   2	  91
   2	 106
   2	 114
   2	 117
   2	 124
   2	 125
   2	 143
   2	 159
   2	 160
   2	 170
   2	 172
   2	 178
   2	 191
   2	 210
   2	 213
   2	 227
   2	 245
   2	 247
   3	  22
   3	  33
   3	  37
   3	  38
   3	  46
   3	  48
   3	  49
   3	  56
   3	  57
   3	  65
   3	  71
   3	  74
   3	  86
   3	  87
   3	  98
   3	 111
   3	 112
   3	 113
   3	 123
   3	 129
   3	 135
   3	 161
   3	 170
   3	 176
   3	 184
   3	 187
   3	 197
   3	 200
   3	 215
   3	 231
   3	 241
   3	 242
   3	 245
   4	  12
   4	  18
   4	  33
   4	  44
   4	  47
   4	  56
   4	  68
   4	  74
   4	  80
   4	  93
   4	 106
   4	 115
   4	 131
   4	 135
   4	 149
   4	 150
   4	 173
   4	 185
   4	 204
   4	 210
   4	 226
   4	 241
   5	   8
   5	  14
   5	  18
   5	  29
   5	  30
   5	  31
   5	  44
   5	  53
   5	  71
   5	  87
   5	  89
   5	  95
   5	 107
   5	 119
   5	 128
   5	 132
   5	 137
   5	 174
   5	 177
   5	 195
   5	 217
   5	 227
   5	 233
   5	 242
   5	 246
   5	 248
   6	  28
   6	  39
   6	  67
   6	  77
   6	  80
   6	  82
   6	  94
   6	 107
   6	 112
   6	 118
   6	 131
   6	 139
   6	 148
   6	 149
   6	 155
   6	 170
   6	 181
   6	 185
   6	 197
   6	 206
   6	 217
   6	 228
   6	 230
   6	 241
   7	  20
   7	  52
   7	  92
   7	  97
   7	  99
   7	 108
   7	 110
   7	 122
   7	 129
   7	 135
   7	 136
   7	 157
   7	 174
   7	 188
   7	 203
   7	 213
   7	 232
   7	 233
   7	 244
   7	 248
   8	  10
   8	  34
   8	  43
   8	  44
   8	  52
   8	  59
   8	  61
   8	  62
   8	  67
   8	  83
   8	  91
   8	 122
   8	 124
   8	 139
   8	 141
   8	 143
   8	 144
   8	 147
   8	 153
   8	 174
   8	 181
   8	 182
   8	 187
   8	 189
   8	 199
   8	 221
   8	 243
   8	 248
   9	  45
   9	  67
   9	 106
   9	 107
   9	 115
   9	 120
   9	 123
   9	 127
   9	 131
   9	 143
   9	 159
   9	 196
   9	 207
   9	 210
   9	 220
   9	 238
   9	 247
  10	  18
  10	  21
  10	  31
  10	  40
  10	  47
  10	  57
  10	  72
  10	  74
  10	  92
  10	  97
  10	  99
  10	 103
  10	 136
  10	 139
  10	 185
  10	 186
  10	 216
  10	 224
  10	 225
  10	 238
  11	  14
  11	  17
  11	  24
  11	  26
  11	  29
  11	  38
  11	  39
  11	  48
  11	  50
  11	  55
  11	  82
  11	  92
  11	 125
  11	 145
  11	 157
  11	 163
  11	 170
  11	 184
  11	 187
  11	 192
  11	 213
  11	 225
  11	 228
  11	 236
  12	  14
  12	  17
  12	  33
  12	  46
  12	  47
  12	  54
  12	  62
  12	  64
  12	  65
  12	  94
  12	  98
  12	  99
  12	 107
  12	 110
  12	 118
  12	 141
  12	 151
  12	 153
  12	 172
  12	 199
  12	 202
  12	 205
  12	 212
  12	 225
  12	 248
  13	  21
  13	  26
  13	  52
  13	  59
  13	  61
  13	  63
  13	  66
  13	  94
  13	 114
  13	 123
  13	 124
  13	 128
  13	 133
  13	 136
  13	 139
  13	 146
  13	 168
  13	 176
  13	 181
  13	 190
  13	 195
  13	 203
  13	 210
  13	 219
  13	 232
  13	 236
  14	  16
  14	  47
  14	  63
  14	  71
  14	  78
  14	  86
  14	  94
  14	  97
  14	 110
  14	 112
  14	 129
  14	 168
  14	 171
  14	 194
  14	 200
  14	 204
  14	 207
  14	 208
  14	 211
  14	 245
  14	 246
  15	  25
  15	  41
  15	  59
  15	  61
  15	  66
  15	  76
  15	  82
  15	  87
  15	  96
  15	 101
  15	 118
  15	 120
  15	 131
  15	 142
  15	 148
  15	 154
  15	 157
  15	 164
  15	 166
  15	 168
  15	 185
  15	 201
  15	 202
  15	 224
  15	 246
  15	 247
  16	  37
  16	  49
  16	  60
  16	  69
  16	  75
  16	  90
  16	  94
  16	  95
  16	 101
  16	 116
  16	 120
  16	 121
  16	 125
  16	 133
  16	 136
  16	 151
  16	 156
  16	 157
  16	 166
  16	 186
  16	 208
  16	 222
  16	 226
  16	 246
  17	  27
  17	  52
  17	  58
  17	  84
  17	 105
  17	 111
  17	 131
  17	 133
  17	 139
  17	 141
  17	 147
  17	 156
  17	 157
  17	 168
  17	 194
  17	 198
  17	 205
  17	 207
  17	 214
  17	 219
  17	 220
  17	 230
  17	 246
  18	  24
  18	  31
  18	  35
  18	  36
  18	  45
  18	  52
  18	  58
  18	  62
  18	  66
  18	  84
  18	 105
  18	 110
  18	 114
  18	 118
  18	 142
  18	 151
  18	 171
  18	 181
  18	 195
  18	 212
  18	 213
  18	 217
  18	 246
  19	  29
  19	  36
  19	  47
  19	  61
  19	  68
  19	  70
  19	  74
  19	  92
  19	  93
  19	  94
  19	  97
  19	  99
  19	 100
  19	 110
  19	 124
  19	 129
  19	 142
  19	 165
  19	 186
  19	 191
  19	 192
  19	 198
  19	 204
  19	 217
  19	 219
  19	 233
  19	 236
  19	 243
  20	  23
  20	  56
  20	  65
  20	  69
  20	  83
  20	  95
  20	 118
  20	 144
  20	 158
  20	 175
  20	 183
  20	 190
  20	 192
  20	 207
  20	 218
  20	 232
  21	  38
  21	  41
  21	  50
  21	  53
  21	  59
  21	  60
  21	  66
  21	  86
  21	 100
  21	 106
  21	 119
  21	 130
  21	 151
  21	 156
  21	 161
  21	 163
  21	 164
  21	 169
  21	 199
  21	 210
  21	 211
  21	 213
  21	 234
  21	 235
  21	 239
  21	 241
  22	  41
  22	  67
  22	  92
  22	 101
  22	 106
  22	 125
  22	 154
  22	 187
  22	 203
  22	 206
  22	 210
  22	 221
  22	 232
  22	 233
  22	 234
  22	 238
  23	  29
  23	  42
  23	  52
  23	  55
  23	  57
  23	  78
  23	  80
  23	  81
  23	  82
  23	  90
  23	 121
  23	 125
  23	 129
  23	 144
  23	 147
  23	 149
  23	 181
  23	 183
  23	 195
  23	 196
  23	 199
  23	 201
  23	 209
  23	 227
  23	 232
  23	 233
  23	 239
  23	 241
  23	 246
  24	  44
  24	  47
  24	  68
  24	  70
  24	  83
  24	  85
  24	  88
  24	  91
  24	  97
  24	 127
  24	 147
  24	 157
  24	 158
  24	 184
  24	 185
  24	 188
  24	 197
  24	 202
  24	 206
  24	 215
  24	 236
  24	 245
  25	  26
  25	  46
  25	  47
  25	  58
  25	  60
  25	  64
  25	  65
  25	  86
  25	  99
  25	 113
  25	 141
  25	 161
  25	 167
  25	 170
  25	 179
  25	 190
  25	 204
  25	 208
  25	 213
  25	 216
  25	 218
  25	 235
  25	 240
  26	  27
  26	  29
  26	  45
  26	  47
  26	  57
  26	  58
  26	  59
  26	  60
  26	  81
  26	  87
  26	  98
  26	 114
  26	 115
  26	 117
  26	 119
  26	 141
  26	 142
  26	 143
  26	 147
  26	 158
  26	 183
  26	 205
  26	 223
  26	 229
  26	 230
  26	 234
  26	 243
  26	 247
  27	  34
  27	  47
  27	  58
  27	  60
  27	  67
  27	  71
  27	  72
  27	  93
  27	 112
  27	 120
  27	 121
  27	 134
  27	 140
  27	 146
  27	 166
  27	 169
  27	 201
  27	 206
  27	 208
  27	 244
  27	 245
  28	  61
  28	  66
  28	  80
  28	  92
  28	  98
  28	 113
  28	 116
  28	 131
  28	 136
  28	 159
  28	 164
  28	 167
  28	 174
  28	 186
  28	 187
  28	 199
  28	 218
  28	 223
  28	 230
  29	  38
  29	  40
  29	  45
  29	  46
  29	  54
  29	  61
  29	  65
  29	  67
  29	  76
  29	  85
  29	  94
  29	 105
  29	 109
  29	 110
  29	 120
  29	 138
  29	 143
  29	 150
  29	 162
  29	 169
  29	 170
  29	 171
  29	 172
  29	 179
  29	 186
  29	 191
  29	 202
  29	 203
  29	 205
  29	 212
  29	 216
  29	 226
  29	 234
  29	 244
  29	 245
  30	  31
  30	  33
  30	  34
  30	  51
  30	  75
  30	  80
  30	  96
  30	 114
  30	 115
  30	 127
  30	 133
  30	 138
  30	 146
  30	 155
  30	 165
  30	 173
  30	 180
  30	 200
  30	 226
  30	 227
  30	 228
  30	 244
  31	  51
  31	  72
  31	  80
  31	 101
  31	 122
  31	 124
  31	 129
  31	 152
  31	 160
  31	 165
  31	 208
  31	 224
  31	 228
  31	 236
  31	 240
  32	  45
  32	  53
  32	  57
  32	  60
  32	  72
  32	  80
  32	  81
  32	  82
  32	  87
  32	 110
  32	 118
  32	 136
  32	 145
  32	 147
  32	 164
  32	 185
  32	 214
  32	 216
  32	 223
  32	 224
  32	 233
  32	 246
  33	  47
  33	  56
  33	  57
  33	  63
  33	  71
  33	  75
  33	  82
  33	  92
  33	  96
  33	 109
  33	 132
  33	 143
  33	 161
  33	 172
  33	 185
  33	 193
  33	 197
  33	 202
  33	 206
  33	 208
  33	 216
  33	 229
  33	 238
  33	 242
  33	 244
  33	 248
  34	  42
  34	  59
  34	  61
  34	  89
  34	 104
  34	 108
  34	 112
  34	 123
  34	 132
  34	 134
  34	 136
  34	 149
  34	 157
  34	 160
  34	 168
  34	 176
  34	 195
  34	 230
  34	 239
  34	 241
  34	 242
  34	 248
  35	  41
  35	  46
  35	  58
  35	  61
  35	  75
  35	  95
  35	  98
  35	 101
  35	 118
  35	 142
  35	 153
  35	 170
  35	 184
  35	 187
  35	 192
  35	 193
  35	 202
  35	 205
  35	 217
  35	 231
  35	 234
  35	 239
  35	 245
  35	 247
  35	 248
  36	  39
  36	  53
  36	  55
  36	  63
  36	  71
  36	  82
  36	 114
  36	 130
  36	 133
  36	 145
  36	 153
  36	 173
  36	 178
  36	 200
  36	 207
  36	 225
  36	 240
  36	 241
  37	  50
  37	  56
  37	  78
  37	  82
  37	  86
  37	  95
  37	 106
  37	 107
  37	 114
  37	 121
  37	 130
  37	 167
  37	 175
  37	 181
  37	 184
  37	 188
  37	 214
  37	 218
  37	 245
  38	  45
  38	  53
  38	  60
  38	  63
  38	  69
  38	  89
  38	  93
  38	  96
  38	 108
  38	 121
  38	 145
  38	 169
  38	 192
  38	 207
  38	 212
  38	 218
  38	 242
  39	  69
  39	  73
  39	  86
  39	  87
  39	  89
  39	  96
  39	 126
  39	 133
  39	 134
  39	 145
  39	 159
  39	 195
  39	 210
  39	 219
  39	 221
  39	 232
  40	  46
  40	  57
  40	  63
  40	  70
  40	  73
  40	 132
  40	 136
  40	 145
  40	 150
  40	 172
  40	 175
  40	 178
  40	 183
  40	 223
  40	 237
  41	  53
  41	  71
  41	  91
  41	 100
  41	 119
  41	 137
  41	 138
  41	 151
  41	 158
  41	 160
  41	 180
  41	 198
  41	 200
  41	 204
  41	 210
  41	 217
  41	 241
  42	  71
  42	  74
  42	  98
  42	 102
  42	 106
  42	 128
  42	 139
  42	 145
  42	 146
  42	 154
  42	 163
  42	 168
  42	 206
  42	 226
  42	 228
  42	 232
  42	 241
  43	  45
  43	  66
  43	  72
  43	  73
  43	  83
  43	  91
  43	 104
  43	 119
  43	 124
  43	 129
  43	 164
  43	 165
  43	 167
  43	 174
  43	 177
  43	 184
  43	 191
  43	 205
  44	  55
  44	  91
  44	 102
  44	 105
  44	 110
  44	 115
  44	 125
  44	 126
  44	 155
  44	 165
  44	 166
  44	 168
  44	 178
  44	 183
  44	 187
  44	 188
  44	 191
  44	 200
  44	 214
  44	 216
  44	 221
  44	 231
  44	 233
  45	  68
  45	  70
  45	  78
  45	  87
  45	  90
  45	  92
  45	  99
  45	 124
  45	 129
  45	 131
  45	 137
  45	 154
  45	 158
  45	 165
  45	 166
  45	 176
  45	 180
  45	 184
  45	 197
  45	 204
  45	 215
  45	 227
  45	 230
  46	  50
  46	  90
  46	 104
  46	 106
  46	 109
  46	 110
  46	 114
  46	 129
  46	 141
  46	 150
  46	 155
  46	 169
  46	 170
  46	 183
  46	 191
  46	 192
  46	 196
  46	 198
  46	 204
  46	 209
  47	  54
  47	  71
  47	  87
  47	 113
  47	 144
  47	 154
  47	 169
  47	 171
  47	 178
  47	 186
  47	 203
  47	 204
  47	 220
  47	 233
  47	 234
  47	 241
  47	 247
  48	  54
  48	  67
  48	  71
  48	  98
  48	 107
  48	 114
  48	 116
  48	 118
  48	 137
  48	 148
  48	 149
  48	 153
  48	 164
  48	 170
  48	 180
  48	 181
  48	 187
  48	 192
  48	 201
  48	 222
  48	 225
  48	 246
  48	 248
  49	  55
  49	  56
  49	  65
  49	  76
  49	  77
  49	  79
  49	  80
  49	  82
  49	  83
  49	  88
  49	  95
  49	 113
  49	 115
  49	 116
  49	 120
  49	 126
  49	 147
  49	 153
  49	 167
  49	 182
  49	 183
  49	 191
  49	 192
  49	 233
  49	 244
  50	  52
  50	  60
  50	  64
  50	  87
  50	  93
  50	 112
  50	 122
  50	 126
  50	 134
  50	 137
  50	 138
  50	 140
  50	 151
  50	 156
  50	 160
  50	 178
  50	 198
  50	 207
  50	 219
  50	 220
  50	 230
  50	 246
  51	  54
  51	 101
  51	 123
  51	 127
  51	 157
  51	 173
  51	 187
  51	 188
  51	 204
  51	 217
  51	 219
  51	 224
  51	 227
  52	  75
  52	  83
  52	  86
  52	  91
  52	  98
  52	 107
  52	 113
  52	 120
  52	 122
  52	 140
  52	 177
  52	 191
  52	 194
  52	 206
  52	 209
  52	 223
  52	 224
  52	 232
  52	 234
  52	 236
  52	 240
  52	 242
  53	  58
  53	  65
  53	  74
  53	  90
  53	 110
  53	 128
  53	 144
  53	 168
  53	 175
  53	 177
  53	 182
  53	 191
  53	 203
  53	 222
  53	 224
  53	 241
  53	 247
  54	  55
  54	  67
  54	  69
  54	  78
  54	  83
  54	  85
  54	  88
  54	  94
  54	 102
  54	 103
  54	 123
  54	 137
  54	 143
  54	 159
  54	 168
  54	 203
  54	 207
  54	 227
  54	 233
  55	  63
  55	  96
  55	 104
  55	 108
  55	 115
  55	 127
  55	 147
  55	 163
  55	 174
  55	 181
  55	 184
  55	 185
  55	 209
  55	 210
  55	 236
  55	 242
  55	 245
  56	  60
  56	  70
  56	  73
  56	  78
  56	  80
  56	  84
  56	  88
  56	  97
  56	 110
  56	 125
  56	 130
  56	 135
  56	 139
  56	 176
  56	 189
  56	 192
  56	 196
  56	 201
  56	 210
  56	 211
  56	 212
  56	 213
  56	 215
  56	 234
  56	 248
  57	  75
  57	  80
  57	  83
  57	  95
  57	 102
  57	 111
  57	 113
  57	 118
  57	 120
  57	 138
  57	 142
  57	 152
  57	 157
  57	 179
  57	 182
  57	 188
  57	 203
  57	 240
  58	  64
  58	  74
  58	  81
  58	 125
  58	 127
  58	 131
  58	 137
  58	 151
  58	 153
  58	 158
  58	 166
  58	 179
  58	 184
  58	 206
  58	 223
  58	 230
  58	 231
  58	 240
  58	 248
  59	  69
  59	  81
  59	  84
  59	  93
  59	  94
  59	  97
  59	  98
  59	 102
  59	 106
  59	 107
  59	 111
  59	 117
  59	 140
  59	 152
  59	 185
  59	 188
  59	 194
  59	 209
  59	 230
  59	 233
  60	  73
  60	  74
  60	  87
  60	  89
  60	  99
  60	 103
  60	 109
  60	 118
  60	 120
  60	 130
  60	 137
  60	 141
  60	 151
  60	 158
  60	 168
  60	 177
  60	 182
  60	 188
  60	 193
  60	 209
  60	 219
  60	 239
  61	  62
  61	  72
  61	  75
  61	 105
  61	 109
  61	 117
  61	 135
  61	 152
  61	 153
  61	 155
  61	 159
  61	 206
  61	 225
  61	 228
  61	 235
  61	 241
  62	  78
  62	  79
  62	  93
  62	 120
  62	 125
  62	 134
  62	 149
  62	 155
  62	 217
  62	 227
  62	 233
  62	 247
  63	  71
  63	  91
  63	 112
  63	 130
  63	 131
  63	 134
  63	 141
  63	 142
  63	 144
  63	 162
  63	 165
  63	 194
  63	 201
  63	 226
  63	 229
  63	 236
  63	 237
  63	 240
  63	 244
  63	 248
  64	  66
  64	  69
  64	  77
  64	  92
  64	  93
  64	  99
  64	 123
  64	 136
  64	 143
  64	 150
  64	 152
  64	 161
  64	 178
  64	 189
  64	 196
  64	 206
  64	 212
  64	 224
  64	 245
  65	  68
  65	  70
  65	  91
  65	 100
  65	 102
  65	 130
  65	 156
  65	 165
  65	 171
  65	 179
  65	 185
  65	 188
  65	 189
  65	 207
  65	 245
  66	  78
  66	  79
  66	  81
  66	  92
  66	  95
  66	  96
  66	  99
  66	 107
  66	 126
  66	 148
  66	 152
  66	 155
  66	 192
  66	 195
  66	 199
  66	 200
  66	 202
  66	 203
  66	 208
  66	 240
  67	  79
  67	  90
  67	  93
  67	 113
  67	 115
  67	 120
  67	 124
  67	 138
  67	 144
  67	 150
  67	 154
  67	 156
  67	 161
  67	 175
  67	 185
  67	 189
  67	 206
  67	 225
  67	 226
  67	 232
  68	  69
  68	  96
  68	 109
  68	 139
  68	 168
  68	 197
  68	 198
  68	 208
  68	 227
  68	 236
  68	 239
  68	 245
  68	 248
  69	  74
  69	  95
  69	 100
  69	 108
  69	 124
  69	 139
  69	 147
  69	 148
  69	 155
  69	 162
  69	 165
  69	 177
  69	 182
  69	 189
  69	 191
  69	 216
  70	  92
  70	 103
  70	 111
  70	 114
  70	 134
  70	 169
  70	 176
  70	 185
  70	 194
  70	 208
  70	 213
  70	 234
  71	  77
  71	  79
  71	  87
  71	  88
  71	 106
  71	 107
  71	 109
  71	 134
  71	 154
  71	 160
  71	 163
  71	 164
  71	 172
  71	 178
  71	 181
  71	 183
  71	 189
  71	 200
  71	 204
  71	 210
  71	 218
  71	 238
  71	 243
  72	  79
  72	  84
  72	  85
  72	  88
  72	  92
  72	  99
  72	 106
  72	 121
  72	 127
  72	 136
  72	 158
  72	 170
  72	 187
  72	 195
  72	 198
  72	 217
  72	 218
  72	 224
  72	 244
  72	 247
  73	  78
  73	 105
  73	 125
  73	 126
  73	 136
  73	 144
  73	 146
  73	 153
  73	 155
  73	 157
  73	 165
  73	 179
  73	 219
  73	 235
  73	 237
  73	 242
  74	  78
  74	  90
  74	  93
  74	  94
  74	  96
  74	 103
  74	 109
  74	 110
  74	 138
  74	 199
  74	 200
  74	 201
  74	 203
  74	 206
  74	 217
  74	 224
  74	 231
  74	 242
  74	 244
  74	 245
  75	  77
  75	  78
  75	  93
  75	 103
  75	 105
  75	 123
  75	 132
  75	 137
  75	 178
  75	 201
  75	 220
  75	 223
  75	 228
  75	 229
  75	 232
  75	 238
  76	  79
  76	  82
  76	 103
  76	 118
  76	 121
  76	 124
  76	 138
  76	 149
  76	 157
  76	 177
  76	 178
  76	 194
  76	 209
  76	 218
  76	 235
  76	 248
  77	  89
  77	  91
  77	  98
  77	 100
  77	 115
  77	 117
  77	 120
  77	 149
  77	 154
  77	 165
  77	 177
  77	 186
  77	 190
  77	 206
  77	 216
  77	 220
  77	 221
  77	 224
  77	 230
  77	 238
  77	 239
  77	 244
  78	  95
  78	 121
  78	 139
  78	 150
  78	 155
  78	 176
  78	 183
  78	 226
  78	 232
  78	 235
  78	 238
  78	 242
  78	 246
  79	  89
  79	  92
  79	 107
  79	 114
  79	 121
  79	 140
  79	 145
  79	 158
  79	 160
  79	 196
  79	 198
  79	 205
  79	 211
  79	 240
  79	 243
  80	  87
  80	  92
  80	  93
  80	 117
  80	 138
  80	 142
  80	 145
  80	 146
  80	 151
  80	 179
  80	 199
  80	 208
  80	 220
  80	 229
  80	 237
  80	 238
  80	 245
  81	  90
  81	 105
  81	 122
  81	 128
  81	 129
  81	 142
  81	 158
  81	 184
  81	 189
  81	 193
  81	 207
  81	 208
  81	 221
  81	 225
  81	 232
  82	  95
  82	 141
  82	 146
  82	 148
  82	 154
  82	 160
  82	 166
  82	 176
  82	 179
  82	 213
  82	 214
  82	 223
  82	 225
  82	 234
  83	  89
  83	  94
  83	 112
  83	 117
  83	 128
  83	 133
  83	 155
  83	 156
  83	 163
  83	 167
  83	 172
  83	 174
  83	 190
  83	 203
  83	 207
  83	 218
  83	 226
  83	 236
  83	 240
  83	 243
  84	  89
  84	 103
  84	 104
  84	 133
  84	 158
  84	 160
  84	 168
  84	 173
  84	 174
  84	 186
  84	 191
  84	 206
  84	 208
  84	 217
  84	 225
  84	 237
  84	 243
  85	  88
  85	  98
  85	  99
  85	 102
  85	 122
  85	 136
  85	 140
  85	 144
  85	 160
  85	 176
  85	 177
  85	 178
  85	 217
  85	 232
  85	 243
  85	 247
  86	  92
  86	  96
  86	 110
  86	 111
  86	 114
  86	 126
  86	 133
  86	 134
  86	 137
  86	 151
  86	 155
  86	 161
  86	 162
  86	 163
  86	 172
  86	 176
  86	 178
  86	 216
  86	 219
  86	 223
  86	 227
  86	 233
  86	 241
  87	  94
  87	 114
  87	 120
  87	 151
  87	 153
  87	 154
  87	 159
  87	 169
  87	 183
  87	 194
  87	 218
  87	 239
  88	 105
  88	 113
  88	 124
  88	 138
  88	 146
  88	 150
  88	 156
  88	 169
  88	 179
  88	 187
  88	 214
  88	 224
  88	 234
  88	 238
  88	 239
  88	 248
  89	 154
  89	 162
  89	 186
  89	 190
  89	 217
  89	 225
  90	  92
  90	  97
  90	 125
  90	 141
  90	 149
  90	 152
  90	 195
  90	 208
  90	 215
  90	 226
  90	 230
  90	 248
  91	 103
  91	 109
  91	 119
  91	 128
  91	 129
  91	 135
  91	 139
  91	 142
  91	 157
  91	 167
  91	 170
  91	 183
  91	 191
  91	 194
  91	 196
  91	 199
  91	 219
  91	 231
  91	 236
  91	 246
  92	  95
  92	 104
  92	 117
  92	 120
  92	 125
  92	 132
  92	 133
  92	 136
  92	 154
  92	 168
  92	 169
  92	 170
  92	 172
  92	 210
  92	 213
  92	 222
  92	 225
  92	 231
  93	 107
  93	 132
  93	 138
  93	 139
  93	 146
  93	 149
  93	 161
  93	 167
  93	 169
  93	 172
  93	 181
  93	 199
  93	 213
  93	 215
  93	 219
  93	 234
  93	 243
  93	 245
  94	 101
  94	 119
  94	 120
  94	 123
  94	 132
  94	 143
  94	 166
  94	 168
  94	 171
  94	 176
  94	 192
  94	 193
  94	 202
  94	 203
  94	 214
  94	 215
  94	 218
  94	 222
  94	 243
  94	 247
  95	  97
  95	 103
  95	 121
  95	 139
  95	 160
  95	 163
  95	 165
  95	 168
  95	 170
  95	 202
  95	 205
  95	 245
  96	 106
  96	 116
  96	 162
  96	 183
  96	 185
  96	 189
  96	 214
  96	 221
  96	 238
  97	 106
  97	 125
  97	 129
  97	 134
  97	 168
  97	 173
  97	 177
  97	 184
  97	 192
  97	 211
  97	 217
  98	 115
  98	 123
  98	 132
  98	 146
  98	 163
  98	 168
  98	 181
  98	 191
  98	 193
  98	 203
  98	 221
  98	 229
  98	 244
  98	 245
  99	 125
  99	 138
  99	 171
  99	 184
  99	 192
  99	 195
  99	 197
  99	 200
  99	 225
  99	 233
  99	 234
 100	 122
 100	 134
 100	 151
 100	 153
 100	 154
 100	 155
 100	 161
 100	 167
 100	 180
 100	 192
 100	 198
 100	 203
 100	 218
 100	 221
 100	 224
 100	 227
 100	 232
 100	 234
 100	 235
 100	 236
 100	 237
 100	 246
 101	 106
 101	 109
 101	 111
 101	 114
 101	 119
 101	 126
 101	 127
 101	 133
 101	 147
 101	 152
 101	 153
 101	 154
 101	 159
 101	 237
 101	 238
 101	 239
 101	 248
 102	 115
 102	 119
 102	 130
 102	 168
 102	 179
 102	 186
 102	 195
 102	 201
 102	 210
 102	 215
 102	 232
 102	 247
 103	 117
 103	 136
 103	 143
 103	 163
 103	 172
 103	 173
 103	 175
 103	 178
 103	 179
 103	 180
 103	 183
 103	 188
 103	 196
 103	 199
 103	 201
 103	 203
 103	 206
 103	 215
 103	 247
 104	 107
 104	 118
 104	 130
 104	 131
 104	 149
 104	 158
 104	 159
 104	 165
 104	 200
 104	 202
 104	 229
 104	 237
 104	 242
 105	 111
 105	 124
 105	 131
 105	 153
 105	 165
 105	 185
 105	 197
 105	 209
 105	 211
 105	 219
 106	 123
 106	 130
 106	 132
 106	 140
 106	 152
 106	 184
 106	 186
 106	 190
 106	 196
 106	 218
 106	 226
 106	 243
 106	 244
 106	 247
 107	 111
 107	 119
 107	 120
 107	 127
 107	 128
 107	 133
 107	 150
 107	 152
 107	 183
 107	 208
 107	 223
 107	 238
 108	 113
 108	 130
 108	 151
 108	 181
 108	 187
 108	 203
 108	 204
 108	 211
 108	 213
 108	 214
 108	 231
 108	 232
 108	 234
 108	 241
 108	 246
 108	 247
 109	 110
 109	 119
 109	 136
 109	 145
 109	 156
 109	 172
 109	 175
 109	 176
 109	 185
 109	 195
 109	 198
 109	 205
 109	 210
 109	 215
 109	 233
 110	 126
 110	 132
 110	 133
 110	 144
 110	 162
 110	 167
 110	 189
 110	 191
 110	 192
 110	 198
 110	 200
 110	 206
 110	 211
 110	 218
 110	 226
 110	 241
 110	 243
 111	 120
 111	 182
 111	 204
 111	 205
 111	 215
 111	 237
 112	 125
 112	 137
 112	 144
 112	 146
 112	 153
 112	 189
 112	 193
 112	 195
 112	 196
 112	 203
 112	 213
 112	 248
 113	 115
 113	 122
 113	 135
 113	 140
 113	 147
 113	 188
 113	 194
 113	 195
 113	 201
 113	 209
 113	 238
 114	 140
 114	 148
 114	 155
 114	 156
 114	 193
 114	 209
 114	 221
 114	 226
 114	 234
 115	 123
 115	 130
 115	 134
 115	 144
 115	 147
 115	 177
 115	 182
 115	 202
 115	 209
 115	 212
 115	 222
 115	 246
 116	 118
 116	 128
 116	 147
 116	 154
 116	 165
 116	 174
 116	 189
 116	 209
 116	 236
 117	 125
 117	 134
 117	 152
 117	 162
 117	 167
 117	 193
 117	 194
 117	 204
 117	 216
 117	 220
 117	 223
 117	 228
 118	 133
 118	 136
 118	 137
 118	 139
 118	 144
 118	 149
 118	 157
 118	 161
 118	 174
 118	 176
 118	 182
 118	 207
 118	 211
 118	 220
 118	 236
 118	 240
 119	 130
 119	 134
 119	 146
 119	 154
 119	 162
 119	 188
 119	 193
 119	 201
 119	 203
 119	 211
 119	 213
 119	 232
 119	 245
 119	 246
 120	 123
 120	 139
 120	 149
 120	 180
 120	 209
 120	 220
 120	 225
 120	 239
 121	 126
 121	 128
 121	 131
 121	 136
 121	 150
 121	 176
 121	 183
 121	 185
 121	 219
 121	 232
 122	 125
 122	 133
 122	 136
 122	 138
 122	 142
 122	 149
 122	 161
 122	 180
 122	 190
 122	 199
 122	 204
 122	 213
 122	 222
 122	 223
 122	 239
 122	 247
 123	 135
 123	 137
 123	 139
 123	 154
 123	 176
 123	 200
 123	 204
 123	 220
 123	 225
 123	 242
 123	 247
 123	 248
 124	 128
 124	 133
 124	 142
 124	 150
 124	 185
 124	 192
 124	 194
 124	 205
 124	 210
 124	 213
 124	 214
 124	 218
 124	 229
 124	 236
 125	 136
 125	 140
 125	 152
 125	 154
 125	 173
 125	 190
 125	 197
 125	 218
 125	 222
 125	 232
 126	 129
 126	 134
 126	 145
 126	 147
 126	 148
 126	 156
 126	 160
 126	 172
 126	 177
 126	 200
 126	 213
 126	 237
 127	 128
 127	 131
 127	 132
 127	 137
 127	 223
 127	 234
 128	 156
 128	 157
 128	 164
 128	 171
 128	 173
 128	 179
 128	 180
 128	 193
 128	 198
 128	 205
 128	 210
 128	 220
 128	 225
 128	 229
 128	 231
 128	 241
 128	 244
 129	 152
 129	 157
 129	 162
 129	 182
 129	 184
 129	 186
 129	 192
 129	 193
 129	 206
 129	 219
 129	 222
 129	 238
 129	 239
 130	 149
 130	 158
 130	 167
 130	 180
 130	 190
 130	 202
 130	 204
 130	 206
 130	 218
 130	 235
 130	 236
 130	 242
 130	 248
 131	 138
 131	 180
 131	 186
 131	 193
 131	 197
 131	 206
 131	 217
 131	 218
 131	 234
 132	 134
 132	 154
 132	 187
 132	 195
 132	 205
 132	 228
 132	 236
 132	 238
 132	 244
 133	 145
 133	 156
 133	 164
 133	 170
 133	 171
 133	 181
 133	 216
 133	 230
 133	 234
 133	 238
 133	 239
 134	 143
 134	 148
 134	 167
 134	 185
 134	 192
 134	 196
 134	 205
 134	 208
 134	 225
 134	 246
 135	 143
 135	 171
 135	 178
 135	 191
 135	 194
 135	 197
 135	 218
 135	 224
 135	 225
 135	 241
 136	 154
 136	 158
 136	 171
 136	 175
 136	 178
 136	 184
 136	 193
 136	 202
 136	 207
 136	 209
 136	 213
 136	 217
 136	 228
 136	 232
 136	 236
 137	 148
 137	 166
 137	 167
 137	 172
 137	 194
 137	 204
 137	 215
 137	 218
 137	 227
 137	 233
 137	 238
 137	 239
 137	 241
 137	 246
 138	 140
 138	 155
 138	 157
 138	 177
 138	 183
 138	 188
 138	 196
 138	 201
 138	 215
 138	 217
 138	 230
 139	 140
 139	 156
 139	 160
 139	 163
 139	 165
 139	 183
 139	 188
 139	 192
 139	 193
 139	 197
 139	 202
 139	 238
 140	 174
 140	 177
 140	 180
 140	 182
 140	 202
 140	 204
 140	 209
 140	 220
 140	 222
 140	 239
 140	 247
 141	 151
 141	 155
 141	 177
 141	 187
 141	 210
 141	 222
 141	 243
 141	 247
 142	 145
 142	 152
 142	 165
 142	 169
 142	 189
 142	 198
 142	 218
 142	 228
 142	 229
 142	 245
 142	 246
 143	 148
 143	 165
 143	 170
 143	 178
 143	 182
 143	 192
 143	 207
 143	 209
 143	 210
 143	 211
 143	 221
 143	 227
 143	 234
 144	 151
 144	 158
 144	 208
 144	 211
 144	 220
 144	 232
 144	 240
 145	 149
 145	 153
 145	 166
 145	 173
 145	 182
 145	 185
 145	 188
 145	 191
 145	 193
 145	 195
 145	 201
 145	 209
 145	 211
 145	 219
 145	 221
 145	 223
 145	 235
 146	 150
 146	 162
 146	 169
 146	 174
 146	 184
 146	 194
 146	 195
 146	 200
 146	 209
 146	 227
 146	 228
 146	 245
 147	 172
 147	 173
 147	 207
 147	 209
 147	 214
 147	 248
 148	 156
 148	 158
 148	 163
 148	 180
 148	 182
 148	 196
 148	 198
 148	 205
 148	 223
 148	 225
 148	 235
 148	 245
 149	 176
 149	 184
 149	 192
 149	 197
 149	 202
 149	 205
 149	 206
 149	 217
 149	 222
 149	 226
 149	 237
 149	 239
 149	 241
 149	 244
 149	 245
 150	 151
 150	 159
 150	 172
 150	 183
 150	 215
 150	 230
 150	 232
 150	 241
 150	 242
 151	 159
 151	 161
 151	 167
 151	 184
 151	 190
 151	 191
 151	 197
 151	 201
 151	 207
 151	 210
 151	 212
 151	 225
 151	 234
 152	 170
 152	 178
 152	 183
 152	 187
 152	 190
 152	 192
 152	 208
 152	 221
 152	 227
 152	 243
 153	 169
 153	 173
 153	 179
 153	 185
 153	 209
 153	 219
 153	 242
 154	 168
 154	 171
 154	 193
 154	 194
 154	 202
 154	 213
 154	 224
 154	 233
 154	 238
 154	 241
 155	 156
 155	 176
 155	 180
 155	 191
 155	 196
 155	 199
 155	 204
 155	 208
 155	 209
 155	 225
 155	 238
 155	 239
 155	 241
 155	 242
 155	 247
 156	 167
 156	 168
 156	 172
 156	 182
 156	 185
 156	 189
 156	 197
 156	 211
 156	 230
 156	 235
 157	 160
 157	 166
 157	 203
 157	 218
 157	 222
 157	 230
 157	 248
 158	 160
 158	 163
 158	 166
 158	 170
 158	 172
 158	 174
 158	 176
 158	 183
 158	 198
 158	 199
 158	 205
 158	 211
 158	 229
 158	 248
 159	 163
 159	 175
 159	 180
 159	 187
 159	 195
 159	 200
 159	 202
 159	 205
 159	 246
 160	 173
 160	 180
 160	 181
 160	 188
 160	 190
 160	 196
 160	 205
 160	 223
 160	 230
 160	 232
 160	 237
 160	 244
 161	 165
 161	 167
 161	 171
 161	 183
 161	 192
 161	 193
 161	 214
 161	 222
 161	 240
 162	 163
 162	 184
 162	 205
 162	 224
 163	 175
 163	 181
 163	 186
 163	 204
 163	 210
 163	 227
 164	 167
 164	 176
 164	 181
 164	 195
 164	 199
 164	 237
 164	 245
 165	 167
 165	 168
 165	 171
 165	 178
 165	 187
 165	 193
 165	 208
 165	 212
 165	 226
 165	 234
 166	 173
 166	 176
 166	 179
 166	 187
 166	 209
 166	 212
 166	 214
 166	 235
 167	 191
 167	 200
 167	 211
 167	 240
 167	 246
 168	 170
 168	 189
 168	 192
 168	 198
 168	 202
 168	 214
 168	 217
 168	 221
 168	 225
 169	 176
 169	 198
 169	 201
 169	 207
 169	 210
 169	 211
 169	 212
 169	 217
 170	 175
 170	 185
 170	 202
 170	 204
 170	 214
 170	 217
 170	 220
 170	 228
 171	 190
 171	 205
 171	 216
 171	 219
 171	 232
 171	 238
 172	 178
 172	 190
 172	 229
 173	 185
 173	 186
 173	 199
 173	 207
 173	 211
 173	 224
 173	 228
 173	 232
 173	 239
 174	 183
 174	 195
 174	 209
 174	 222
 174	 225
 174	 228
 174	 248
 175	 195
 175	 216
 175	 220
 175	 224
 175	 231
 175	 247
 176	 177
 176	 178
 176	 182
 176	 183
 176	 193
 176	 201
 176	 202
 176	 203
 176	 210
 176	 222
 176	 225
 176	 231
 176	 242
 177	 181
 177	 187
 177	 196
 177	 203
 177	 208
 177	 218
 177	 221
 177	 226
 177	 229
 177	 231
 177	 233
 178	 183
 178	 190
 178	 197
 178	 198
 178	 209
 178	 210
 178	 211
 178	 212
 178	 226
 178	 229
 178	 237
 179	 180
 179	 181
 179	 194
 179	 201
 179	 205
 179	 210
 179	 219
 179	 237
 179	 242
 179	 246
 179	 247
 180	 210
 180	 218
 180	 233
 180	 240
 181	 188
 181	 198
 181	 200
 181	 201
 181	 226
 181	 233
 181	 246
 182	 189
 182	 192
 182	 194
 182	 212
 183	 184
 183	 188
 183	 192
 183	 195
 183	 208
 183	 215
 183	 225
 183	 228
 184	 185
 184	 191
 184	 202
 184	 218
 184	 222
 184	 224
 184	 225
 184	 228
 185	 200
 185	 211
 185	 212
 185	 214
 185	 220
 185	 248
 186	 210
 186	 222
 186	 223
 187	 190
 187	 205
 187	 212
 187	 215
 187	 224
 187	 242
 187	 248
 188	 192
 188	 200
 188	 203
 188	 208
 188	 209
 188	 218
 188	 227
 188	 246
 189	 203
 189	 211
 189	 214
 190	 194
 190	 205
 190	 211
 190	 224
 191	 196
 191	 212
 191	 220
 191	 224
 191	 229
 191	 240
 192	 194
 192	 199
 192	 200
 192	 206
 192	 215
 192	 221
 192	 222
 192	 242
 192	 245
 192	 246
 193	 196
 193	 212
 193	 218
 193	 221
 193	 227
 193	 235
 193	 243
 194	 203
 194	 205
 194	 212
 194	 214
 194	 217
 194	 225
 194	 231
 194	 232
 194	 244
 195	 206
 195	 211
 195	 224
 195	 232
 196	 206
 196	 211
 196	 231
 196	 237
 196	 245
 197	 210
 197	 220
 197	 232
 197	 239
 198	 203
 198	 219
 198	 224
 198	 227
 198	 229
 198	 232
 198	 245
 198	 246
 199	 201
 199	 205
 199	 208
 199	 209
 199	 212
 199	 218
 199	 219
 199	 233
 199	 236
 199	 241
 199	 242
 200	 238
 200	 240
 200	 247
 201	 209
 201	 215
 201	 216
 201	 217
 201	 226
 201	 233
 202	 229
 202	 238
 202	 245
 203	 226
 203	 231
 203	 237
 203	 248
 204	 210
 205	 221
 205	 224
 205	 236
 205	 242
 205	 244
 206	 209
 206	 240
 206	 246
 207	 210
 207	 212
 207	 215
 207	 230
 207	 235
 207	 237
 208	 213
 208	 229
 208	 234
 208	 236
 208	 245
 208	 246
 208	 248
 209	 219
 209	 225
 209	 247
 210	 212
 210	 242
 211	 222
 211	 228
 211	 242
 212	 235
 212	 245
 213	 222
 213	 233
 213	 240
 214	 217
 214	 223
 214	 237
 214	 244
 214	 246
 215	 227
 215	 233
 215	 235
 215	 245
 216	 219
 216	 234
 216	 238
 216	 243
 217	 224
 217	 225
 217	 228
 218	 220
 218	 242
 218	 244
 219	 222
 219	 229
 219	 233
 219	 235
 219	 244
 220	 235
 220	 240
 220	 245
 220	 248
 221	 222
 221	 233
 221	 237
 221	 241
 221	 243
 221	 245
 222	 227
 222	 237
 222	 246
 223	 241
 223	 244
 223	 247
 224	 233
 224	 235
 224	 245
 224	 246
 225	 231
 225	 244
 226	 237
 227	 233
 227	 234
 227	 237
 228	 229
 228	 233
 228	 240
 228	 246
 229	 241
 229	 244
 229	 246
 229	 247
 230	 232
 231	 233
 232	 240
 232	 241
 232	 243
 232	 247
 232	 248
 233	 241
 233	 243
 233	 245
 234	 239
 234	 241
 234	 248
 235	 242
 236	 242
 236	 243
 239	 247
 240	 247
 241	 244
 242	 243
 243	 246
 244	 247
;
